(set-logic QF_UF)
(declare-fun A0 () Bool)
(declare-fun A1 () Bool)
(declare-fun A2 () Bool)
(declare-fun A3 () Bool)
(declare-fun A4 () Bool)
(declare-fun A5 () Bool)
(declare-fun A6 () Bool)
(declare-fun A7 () Bool)
(declare-fun A8 () Bool)
(declare-fun A9 () Bool)
(declare-fun A10 () Bool)
(declare-fun A11 () Bool)
(declare-fun A12 () Bool)
(declare-fun A13 () Bool)
(declare-fun A14 () Bool)
(declare-fun A15 () Bool)
(declare-fun A16 () Bool)
(declare-fun A17 () Bool)
(declare-fun A18 () Bool)
(declare-fun A19 () Bool)
(declare-fun A20 () Bool)
(declare-fun A21 () Bool)
(declare-fun A22 () Bool)
(declare-fun A23 () Bool)
(declare-fun A24 () Bool)
(assert (let ((.def_0 (not A1))) (let ((.def_1 (not A0))) (let ((.def_2 (and .def_1 .def_0))) (let ((.def_3 (or A20 A4))) (let ((.def_4 (or .def_3 .def_2))) (let ((.def_5 (not A2))) (let ((.def_6 (not A15))) (let ((.def_7 (and .def_6 .def_5))) (let ((.def_8 (not .def_7))) (let ((.def_9 (or A10 A17))) (let ((.def_10 (and .def_9 .def_8))) (let ((.def_11 (and .def_10 .def_4))) (let ((.def_12 (not A17))) (let ((.def_13 (or .def_12 A8))) (let ((.def_14 (not A7))) (let ((.def_15 (and A21 .def_14))) (let ((.def_16 (not .def_15))) (let ((.def_17 (or .def_16 .def_13))) (let ((.def_18 (and A4 A3))) (let ((.def_19 (not .def_18))) (let ((.def_20 (not A10))) (let ((.def_21 (or A16 .def_20))) (let ((.def_22 (not .def_21))) (let ((.def_23 (and .def_22 .def_19))) (let ((.def_24 (and .def_23 .def_17))) (let ((.def_25 (not .def_24))) (let ((.def_26 (and .def_25 .def_11))) (let ((.def_27 (or A19 A16))) (let ((.def_28 (not .def_27))) (let ((.def_29 (or A22 A23))) (let ((.def_30 (and .def_29 .def_28))) (let ((.def_31 (not A22))) (let ((.def_32 (or A17 .def_31))) (let ((.def_33 (or .def_5 A4))) (let ((.def_34 (not .def_33))) (let ((.def_35 (and .def_34 .def_32))) (let ((.def_36 (not .def_35))) (let ((.def_37 (or .def_36 .def_30))) (let ((.def_38 (not A24))) (let ((.def_39 (and .def_38 A8))) (let ((.def_40 (not .def_39))) (let ((.def_41 (not A14))) (let ((.def_42 (and .def_41 A20))) (let ((.def_43 (not .def_42))) (let ((.def_44 (and .def_43 .def_40))) (let ((.def_45 (or A13 A3))) (let ((.def_46 (and .def_14 A24))) (let ((.def_47 (and .def_46 .def_45))) (let ((.def_48 (not .def_47))) (let ((.def_49 (and .def_48 .def_44))) (let ((.def_50 (and .def_49 .def_37))) (let ((.def_51 (and .def_50 .def_26))) (let ((.def_52 (not .def_51))) (let ((.def_53 (or .def_20 A0))) (let ((.def_54 (not A19))) (let ((.def_55 (or .def_54 A12))) (let ((.def_56 (and .def_55 .def_53))) (let ((.def_57 (not A23))) (let ((.def_58 (and A8 .def_57))) (let ((.def_59 (not A8))) (let ((.def_60 (= .def_59 A3))) (let ((.def_61 (not .def_60))) (let ((.def_62 (or .def_61 .def_58))) (let ((.def_63 (= .def_62 .def_56))) (let ((.def_64 (and A9 .def_57))) (let ((.def_65 (not .def_64))) (let ((.def_66 (or .def_59 A1))) (let ((.def_67 (not .def_66))) (let ((.def_68 (or .def_67 .def_65))) (let ((.def_69 (and .def_14 .def_54))) (let ((.def_70 (not .def_69))) (let ((.def_71 (or .def_20 A18))) (let ((.def_72 (or .def_71 .def_70))) (let ((.def_73 (or .def_72 .def_68))) (let ((.def_74 (or .def_73 .def_63))) (let ((.def_75 (not .def_74))) (let ((.def_76 (and A22 A16))) (let ((.def_77 (not A13))) (let ((.def_78 (or .def_77 A1))) (let ((.def_79 (not .def_78))) (let ((.def_80 (and .def_79 .def_76))) (let ((.def_81 (and .def_54 A1))) (let ((.def_82 (not .def_81))) (let ((.def_83 (not A16))) (let ((.def_84 (not A21))) (let ((.def_85 (or .def_84 .def_83))) (let ((.def_86 (or .def_85 .def_82))) (let ((.def_87 (not .def_86))) (let ((.def_88 (and .def_87 .def_80))) (let ((.def_89 (and A13 A16))) (let ((.def_90 (or A11 A9))) (let ((.def_91 (not .def_90))) (let ((.def_92 (or .def_91 .def_89))) (let ((.def_93 (not .def_92))) (let ((.def_94 (not A12))) (let ((.def_95 (and .def_94 .def_94))) (let ((.def_96 (and .def_59 A5))) (let ((.def_97 (not .def_96))) (let ((.def_98 (or .def_97 .def_95))) (let ((.def_99 (not .def_98))) (let ((.def_100 (and .def_99 .def_93))) (let ((.def_101 (and .def_100 .def_88))) (let ((.def_102 (or .def_101 .def_75))) (let ((.def_103 (or .def_102 .def_52))) (let ((.def_104 (and A13 A7))) (let ((.def_105 (not .def_104))) (let ((.def_106 (or A16 .def_83))) (let ((.def_107 (or .def_106 .def_105))) (let ((.def_108 (not .def_107))) (let ((.def_109 (and .def_84 A7))) (let ((.def_110 (or A6 A12))) (let ((.def_111 (or .def_110 .def_109))) (let ((.def_112 (not .def_111))) (let ((.def_113 (or .def_112 .def_108))) (let ((.def_114 (not .def_113))) (let ((.def_115 (or A5 .def_57))) (let ((.def_116 (and A0 .def_0))) (let ((.def_117 (not .def_116))) (let ((.def_118 (or .def_117 .def_115))) (let ((.def_119 (or .def_83 A14))) (let ((.def_120 (or A23 A13))) (let ((.def_121 (not .def_120))) (let ((.def_122 (= .def_121 .def_119))) (let ((.def_123 (and .def_122 .def_118))) (let ((.def_124 (and .def_123 .def_114))) (let ((.def_125 (or .def_20 A6))) (let ((.def_126 (or A1 A10))) (let ((.def_127 (not .def_126))) (let ((.def_128 (and .def_127 .def_125))) (let ((.def_129 (not A20))) (let ((.def_130 (or A8 .def_129))) (let ((.def_131 (= A0 .def_59))) (let ((.def_132 (not .def_131))) (let ((.def_133 (or .def_132 .def_130))) (let ((.def_134 (not .def_133))) (let ((.def_135 (or .def_134 .def_128))) (let ((.def_136 (or A7 A7))) (let ((.def_137 (not A11))) (let ((.def_138 (or .def_137 A21))) (let ((.def_139 (not .def_138))) (let ((.def_140 (and .def_139 .def_136))) (let ((.def_141 (and A19 .def_38))) (let ((.def_142 (= .def_1 .def_57))) (let ((.def_143 (and .def_142 .def_141))) (let ((.def_144 (and .def_143 .def_140))) (let ((.def_145 (or .def_144 .def_135))) (let ((.def_146 (or .def_145 .def_124))) (let ((.def_147 (not .def_146))) (let ((.def_148 (or A9 A4))) (let ((.def_149 (not .def_148))) (let ((.def_150 (not A9))) (let ((.def_151 (or .def_150 .def_14))) (let ((.def_152 (and .def_151 .def_149))) (let ((.def_153 (and A4 .def_59))) (let ((.def_154 (and A10 A14))) (let ((.def_155 (not .def_154))) (let ((.def_156 (and .def_155 .def_153))) (let ((.def_157 (not .def_156))) (let ((.def_158 (and .def_157 .def_152))) (let ((.def_159 (not .def_158))) (let ((.def_160 (or A22 A16))) (let ((.def_161 (= A17 A12))) (let ((.def_162 (or .def_161 .def_160))) (let ((.def_163 (not .def_162))) (let ((.def_164 (and A15 A20))) (let ((.def_165 (not .def_164))) (let ((.def_166 (or A17 .def_84))) (let ((.def_167 (not .def_166))) (let ((.def_168 (= .def_167 .def_165))) (let ((.def_169 (and .def_168 .def_163))) (let ((.def_170 (not .def_169))) (let ((.def_171 (or .def_170 .def_159))) (let ((.def_172 (not .def_171))) (let ((.def_173 (and .def_137 A12))) (let ((.def_174 (not .def_173))) (let ((.def_175 (or .def_5 A8))) (let ((.def_176 (and .def_175 .def_174))) (let ((.def_177 (or A8 A16))) (let ((.def_178 (or .def_137 .def_94))) (let ((.def_179 (not .def_178))) (let ((.def_180 (or .def_179 .def_177))) (let ((.def_181 (and .def_180 .def_176))) (let ((.def_182 (not .def_181))) (let ((.def_183 (and .def_137 .def_94))) (let ((.def_184 (and .def_94 .def_137))) (let ((.def_185 (and .def_184 .def_183))) (let ((.def_186 (or A8 A9))) (let ((.def_187 (or A16 .def_6))) (let ((.def_188 (not .def_187))) (let ((.def_189 (or .def_188 .def_186))) (let ((.def_190 (not .def_189))) (let ((.def_191 (and .def_190 .def_185))) (let ((.def_192 (and .def_191 .def_182))) (let ((.def_193 (and .def_192 .def_172))) (let ((.def_194 (not .def_193))) (let ((.def_195 (and .def_194 .def_147))) (let ((.def_196 (not .def_195))) (let ((.def_197 (and .def_196 .def_103))) (let ((.def_198 (not .def_197))) (let ((.def_199 (and A7 A11))) (let ((.def_200 (not .def_199))) (let ((.def_201 (or .def_188 .def_200))) (let ((.def_202 (not .def_201))) (let ((.def_203 (not A18))) (let ((.def_204 (not A3))) (let ((.def_205 (and .def_204 .def_203))) (let ((.def_206 (or .def_94 A1))) (let ((.def_207 (or .def_206 .def_205))) (let ((.def_208 (not .def_207))) (let ((.def_209 (and .def_208 .def_202))) (let ((.def_210 (or A21 .def_54))) (let ((.def_211 (not A4))) (let ((.def_212 (or .def_38 .def_211))) (let ((.def_213 (not .def_212))) (let ((.def_214 (or .def_213 .def_210))) (let ((.def_215 (not A5))) (let ((.def_216 (and .def_215 A17))) (let ((.def_217 (not .def_216))) (let ((.def_218 (and A12 .def_6))) (let ((.def_219 (not .def_218))) (let ((.def_220 (and .def_219 .def_217))) (let ((.def_221 (or .def_220 .def_214))) (let ((.def_222 (or .def_221 .def_209))) (let ((.def_223 (not .def_222))) (let ((.def_224 (and .def_14 A12))) (let ((.def_225 (not .def_224))) (let ((.def_226 (and .def_94 .def_211))) (let ((.def_227 (not .def_226))) (let ((.def_228 (or .def_227 .def_225))) (let ((.def_229 (not .def_228))) (let ((.def_230 (and .def_59 A0))) (let ((.def_231 (= .def_150 A6))) (let ((.def_232 (= .def_231 .def_230))) (let ((.def_233 (not .def_232))) (let ((.def_234 (and .def_233 .def_229))) (let ((.def_235 (not .def_234))) (let ((.def_236 (= A7 A23))) (let ((.def_237 (not .def_236))) (let ((.def_238 (= A14 .def_83))) (let ((.def_239 (not .def_238))) (let ((.def_240 (= .def_239 .def_237))) (let ((.def_241 (not .def_240))) (let ((.def_242 (and A7 A12))) (let ((.def_243 (not .def_242))) (let ((.def_244 (or .def_204 A3))) (let ((.def_245 (not .def_244))) (let ((.def_246 (or .def_245 .def_243))) (let ((.def_247 (not .def_246))) (let ((.def_248 (and .def_247 .def_241))) (let ((.def_249 (and .def_248 .def_235))) (let ((.def_250 (or .def_249 .def_223))) (let ((.def_251 (not .def_250))) (let ((.def_252 (or A21 .def_14))) (let ((.def_253 (or .def_77 .def_129))) (let ((.def_254 (and .def_253 .def_252))) (let ((.def_255 (not .def_254))) (let ((.def_256 (and .def_59 .def_129))) (let ((.def_257 (and .def_137 A3))) (let ((.def_258 (not .def_257))) (let ((.def_259 (and .def_258 .def_256))) (let ((.def_260 (not .def_259))) (let ((.def_261 (or .def_260 .def_255))) (let ((.def_262 (not .def_261))) (let ((.def_263 (and A22 .def_54))) (let ((.def_264 (or A7 A21))) (let ((.def_265 (or .def_264 .def_263))) (let ((.def_266 (or .def_38 A18))) (let ((.def_267 (not .def_266))) (let ((.def_268 (and .def_41 A7))) (let ((.def_269 (and .def_268 .def_267))) (let ((.def_270 (= .def_269 .def_265))) (let ((.def_271 (not .def_270))) (let ((.def_272 (or .def_271 .def_262))) (let ((.def_273 (or A13 A9))) (let ((.def_274 (not .def_273))) (let ((.def_275 (= A7 .def_31))) (let ((.def_276 (or .def_275 .def_274))) (let ((.def_277 (not .def_276))) (let ((.def_278 (or A23 A17))) (let ((.def_279 (and .def_77 .def_1))) (let ((.def_280 (not .def_279))) (let ((.def_281 (or .def_280 .def_278))) (let ((.def_282 (and .def_281 .def_277))) (let ((.def_283 (or A0 A17))) (let ((.def_284 (and .def_150 .def_129))) (let ((.def_285 (= .def_284 .def_283))) (let ((.def_286 (and .def_0 .def_57))) (let ((.def_287 (not .def_286))) (let ((.def_288 (or A7 A3))) (let ((.def_289 (or .def_288 .def_287))) (let ((.def_290 (not .def_289))) (let ((.def_291 (and .def_290 .def_285))) (let ((.def_292 (and .def_291 .def_282))) (let ((.def_293 (not .def_292))) (let ((.def_294 (and .def_293 .def_272))) (let ((.def_295 (not .def_294))) (let ((.def_296 (and .def_295 .def_251))) (let ((.def_297 (not .def_296))) (let ((.def_298 (and .def_129 .def_54))) (let ((.def_299 (or A0 .def_12))) (let ((.def_300 (or .def_299 .def_298))) (let ((.def_301 (not .def_300))) (let ((.def_302 (and A17 .def_137))) (let ((.def_303 (not .def_302))) (let ((.def_304 (or A16 A15))) (let ((.def_305 (not .def_304))) (let ((.def_306 (or .def_305 .def_303))) (let ((.def_307 (not .def_306))) (let ((.def_308 (or .def_307 .def_301))) (let ((.def_309 (or .def_41 A14))) (let ((.def_310 (not .def_309))) (let ((.def_311 (and .def_215 A13))) (let ((.def_312 (not .def_311))) (let ((.def_313 (or .def_312 .def_310))) (let ((.def_314 (and .def_77 A6))) (let ((.def_315 (and A9 .def_12))) (let ((.def_316 (and .def_315 .def_314))) (let ((.def_317 (not .def_316))) (let ((.def_318 (and .def_317 .def_313))) (let ((.def_319 (and .def_318 .def_308))) (let ((.def_320 (not .def_319))) (let ((.def_321 (or .def_94 A11))) (let ((.def_322 (and A14 A0))) (let ((.def_323 (and .def_322 .def_321))) (let ((.def_324 (or .def_129 A9))) (let ((.def_325 (not .def_324))) (let ((.def_326 (and .def_59 A22))) (let ((.def_327 (and .def_326 .def_325))) (let ((.def_328 (not .def_327))) (let ((.def_329 (and .def_328 .def_323))) (let ((.def_330 (not .def_329))) (let ((.def_331 (or A16 A10))) (let ((.def_332 (and .def_41 .def_215))) (let ((.def_333 (or .def_332 .def_331))) (let ((.def_334 (and .def_57 .def_215))) (let ((.def_335 (or A6 .def_150))) (let ((.def_336 (or .def_335 .def_334))) (let ((.def_337 (and .def_336 .def_333))) (let ((.def_338 (and .def_337 .def_330))) (let ((.def_339 (or .def_338 .def_320))) (let ((.def_340 (or A22 .def_41))) (let ((.def_341 (not .def_340))) (let ((.def_342 (= .def_150 A9))) (let ((.def_343 (and .def_342 .def_341))) (let ((.def_344 (not .def_343))) (let ((.def_345 (or .def_54 A7))) (let ((.def_346 (or .def_41 A22))) (let ((.def_347 (or .def_346 .def_345))) (let ((.def_348 (and .def_347 .def_344))) (let ((.def_349 (or .def_5 .def_5))) (let ((.def_350 (not .def_349))) (let ((.def_351 (and .def_20 .def_54))) (let ((.def_352 (or .def_351 .def_350))) (let ((.def_353 (not A6))) (let ((.def_354 (or A5 .def_353))) (let ((.def_355 (or A22 .def_150))) (let ((.def_356 (not .def_355))) (let ((.def_357 (or .def_356 .def_354))) (let ((.def_358 (and .def_357 .def_352))) (let ((.def_359 (not .def_358))) (let ((.def_360 (or .def_359 .def_348))) (let ((.def_361 (not .def_360))) (let ((.def_362 (and A8 A17))) (let ((.def_363 (not .def_362))) (let ((.def_364 (or A3 A23))) (let ((.def_365 (or .def_364 .def_363))) (let ((.def_366 (or A3 A17))) (let ((.def_367 (not .def_366))) (let ((.def_368 (and A2 A14))) (let ((.def_369 (not .def_368))) (let ((.def_370 (and .def_369 .def_367))) (let ((.def_371 (= .def_370 .def_365))) (let ((.def_372 (not .def_371))) (let ((.def_373 (and .def_137 A8))) (let ((.def_374 (not .def_373))) (let ((.def_375 (and A16 A22))) (let ((.def_376 (or .def_375 .def_374))) (let ((.def_377 (and .def_215 .def_5))) (let ((.def_378 (not .def_377))) (let ((.def_379 (and A19 .def_129))) (let ((.def_380 (or .def_379 .def_378))) (let ((.def_381 (not .def_380))) (let ((.def_382 (or .def_381 .def_376))) (let ((.def_383 (and .def_382 .def_372))) (let ((.def_384 (or .def_383 .def_361))) (let ((.def_385 (not .def_384))) (let ((.def_386 (and .def_385 .def_339))) (let ((.def_387 (not .def_386))) (let ((.def_388 (and .def_387 .def_297))) (let ((.def_389 (not .def_388))) (let ((.def_390 (or .def_389 .def_198))) .def_390))))))))))))))))))))))))))))))))))))))))))))))))))))))))))))))))))))))))))))))))))))))))))))))))))))))))))))))))))))))))))))))))))))))))))))))))))))))))))))))))))))))))))))))))))))))))))))))))))))))))))))))))))))))))))))))))))))))))))))))))))))))))))))))))))))))))))))))))))))))))))))))))))))))))))))))))))))))))))))))))))))))))))))))))))))))))))))))))))))))))))))))))))))))))))))))))))))))))
(check-sat)
